c Command line: hgen8 120 90
p cnf 120 194
52 24 111 79 0
68 74 101 29 0
18 85 31 100 0
39 47 55 108 0
57 21 8 6 0
75 67 110 88 0
70 26 48 10 0
93 56 53 41 0
20 117 45 1 0
94 91 69 66 0
73 30 43 14 0
19 115 40 36 0
80 46 2 81 0
112 118 17 107 0
82 77 72 62 0
102 33 12 50 0
98 120 11 49 0
3 28 71 78 0
7 99 89 84 0
97 51 23 86 0
60 92 4 87 0
95 25 54 83 0
109 116 63 42 0
64 106 16 90 0
65 27 114 22 0
-1 -2 0
-1 -3 0
-1 -4 0
-2 -3 0
-2 -4 0
-3 -4 0
-6 -7 0
-6 -8 0
-6 -10 0
-7 -8 0
-7 -10 0
-8 -10 0
-11 -12 0
-11 -14 0
-12 -14 0
-16 -17 0
-16 -18 0
-16 -19 0
-16 -20 0
-17 -18 0
-17 -19 0
-17 -20 0
-18 -19 0
-18 -20 0
-19 -20 0
-21 -22 0
-21 -23 0
-21 -24 0
-21 -25 0
-22 -23 0
-22 -24 0
-22 -25 0
-23 -24 0
-23 -25 0
-24 -25 0
-26 -27 0
-26 -28 0
-26 -29 0
-26 -30 0
-27 -28 0
-27 -29 0
-27 -30 0
-28 -29 0
-28 -30 0
-29 -30 0
-31 -33 0
-36 -39 0
-36 -40 0
-39 -40 0
-41 -42 0
-41 -43 0
-41 -45 0
-42 -43 0
-42 -45 0
-43 -45 0
-46 -47 0
-46 -48 0
-46 -49 0
-46 -50 0
-47 -48 0
-47 -49 0
-47 -50 0
-48 -49 0
-48 -50 0
-49 -50 0
-51 -52 0
-51 -53 0
-51 -54 0
-51 -55 0
-52 -53 0
-52 -54 0
-52 -55 0
-53 -54 0
-53 -55 0
-54 -55 0
-56 -57 0
-56 -60 0
-57 -60 0
-62 -63 0
-62 -64 0
-62 -65 0
-63 -64 0
-63 -65 0
-64 -65 0
-66 -67 0
-66 -68 0
-66 -69 0
-66 -70 0
-67 -68 0
-67 -69 0
-67 -70 0
-68 -69 0
-68 -70 0
-69 -70 0
-71 -72 0
-71 -73 0
-71 -74 0
-71 -75 0
-72 -73 0
-72 -74 0
-72 -75 0
-73 -74 0
-73 -75 0
-74 -75 0
-77 -78 0
-77 -79 0
-77 -80 0
-78 -79 0
-78 -80 0
-79 -80 0
-81 -82 0
-81 -83 0
-81 -84 0
-81 -85 0
-82 -83 0
-82 -84 0
-82 -85 0
-83 -84 0
-83 -85 0
-84 -85 0
-86 -87 0
-86 -88 0
-86 -89 0
-86 -90 0
-87 -88 0
-87 -89 0
-87 -90 0
-88 -89 0
-88 -90 0
-89 -90 0
-91 -92 0
-91 -93 0
-91 -94 0
-91 -95 0
-92 -93 0
-92 -94 0
-92 -95 0
-93 -94 0
-93 -95 0
-94 -95 0
-97 -98 0
-97 -99 0
-97 -100 0
-98 -99 0
-98 -100 0
-99 -100 0
-101 -102 0
-106 -107 0
-106 -108 0
-106 -109 0
-106 -110 0
-107 -108 0
-107 -109 0
-107 -110 0
-108 -109 0
-108 -110 0
-109 -110 0
-111 -112 0
-111 -114 0
-111 -115 0
-112 -114 0
-112 -115 0
-114 -115 0
-116 -117 0
-116 -118 0
-116 -120 0
-117 -118 0
-117 -120 0
-118 -120 0
